clingo version 5.6.2
Reading from ./clingo/campionato16.cl ...
Solving...
Answer: 1
assegna(1,bulls,celtics) assegna(4,nets,celtics) assegna(18,seventysixers,celtics) assegna(2,cavaliers,celtics) assegna(5,mavericks,celtics) assegna(15,lakers,celtics) assegna(28,pistons,celtics) assegna(8,warriors,celtics) assegna(16,clippers,celtics) assegna(13,rockets,celtics) assegna(23,pacers,celtics) assegna(19,heat,celtics) assegna(22,nuggets,celtics) assegna(25,grizzlies,celtics) assegna(11,bucks,celtics) assegna(20,celtics,nets) assegna(29,seventysixers,nets) assegna(22,bulls,nets) assegna(3,cavaliers,nets) assegna(6,mavericks,nets) assegna(24,lakers,nets) assegna(27,pistons,nets) assegna(26,warriors,nets) assegna(1,clippers,nets) assegna(19,rockets,nets) assegna(5,pacers,nets) assegna(9,heat,nets) assegna(12,nuggets,nets) assegna(15,grizzlies,nets) assegna(16,bucks,nets) assegna(10,celtics,seventysixers) assegna(8,nets,seventysixers) assegna(3,bulls,seventysixers) assegna(5,cavaliers,seventysixers) assegna(1,mavericks,seventysixers) assegna(14,lakers,seventysixers) assegna(11,pistons,seventysixers) assegna(21,warriors,seventysixers) assegna(7,clippers,seventysixers) assegna(20,rockets,seventysixers) assegna(17,pacers,seventysixers) assegna(24,heat,seventysixers) assegna(27,nuggets,seventysixers) assegna(28,grizzlies,seventysixers) assegna(15,bucks,seventysixers) assegna(24,celtics,bulls) assegna(13,nets,bulls) assegna(23,seventysixers,bulls) assegna(27,cavaliers,bulls) assegna(11,mavericks,bulls) assegna(17,lakers,bulls) assegna(8,pistons,bulls) assegna(14,warriors,bulls) assegna(19,clippers,bulls) assegna(7,rockets,bulls) assegna(2,pacers,bulls) assegna(20,heat,bulls) assegna(4,nuggets,bulls) assegna(26,grizzlies,bulls) assegna(29,bucks,bulls) assegna(26,celtics,cavaliers) assegna(30,nets,cavaliers) assegna(16,seventysixers,cavaliers) assegna(9,bulls,cavaliers) assegna(24,mavericks,cavaliers) assegna(28,lakers,cavaliers) assegna(1,pistons,cavaliers) assegna(19,warriors,cavaliers) assegna(20,clippers,cavaliers) assegna(4,rockets,cavaliers) assegna(11,pacers,cavaliers) assegna(12,heat,cavaliers) assegna(15,nuggets,cavaliers) assegna(23,grizzlies,cavaliers) assegna(6,bucks,cavaliers) assegna(30,celtics,mavericks) assegna(23,nets,mavericks) assegna(19,seventysixers,mavericks) assegna(16,bulls,mavericks) assegna(14,cavaliers,mavericks) assegna(8,lakers,mavericks) assegna(4,pistons,mavericks) assegna(7,warriors,mavericks) assegna(2,clippers,mavericks) assegna(10,rockets,mavericks) assegna(22,pacers,mavericks) assegna(29,heat,mavericks) assegna(17,nuggets,mavericks) assegna(12,grizzlies,mavericks) assegna(26,bucks,mavericks) assegna(27,celtics,lakers) assegna(7,nets,lakers) assegna(25,seventysixers,lakers) assegna(5,bulls,lakers) assegna(10,cavaliers,lakers) assegna(20,mavericks,lakers) assegna(23,pistons,lakers) assegna(12,warriors,lakers) assegna(29,clippers,lakers) assegna(2,rockets,lakers) assegna(16,pacers,lakers) assegna(4,heat,lakers) assegna(1,nuggets,lakers) assegna(19,grizzlies,lakers) assegna(13,bucks,lakers) assegna(12,celtics,pistons) assegna(10,nets,pistons) assegna(26,seventysixers,pistons) assegna(30,bulls,pistons) assegna(22,cavaliers,pistons) assegna(21,mavericks,pistons) assegna(9,lakers,pistons) assegna(17,warriors,pistons) assegna(25,clippers,pistons) assegna(5,rockets,pistons) assegna(29,pacers,pistons) assegna(15,heat,pistons) assegna(7,nuggets,pistons) assegna(2,grizzlies,pistons) assegna(19,bucks,pistons) assegna(29,celtics,warriors) assegna(11,nets,warriors) assegna(6,seventysixers,warriors) assegna(25,bulls,warriors) assegna(13,cavaliers,warriors) assegna(18,mavericks,warriors) assegna(30,lakers,warriors) assegna(3,pistons,warriors) assegna(5,clippers,warriors) assegna(27,rockets,warriors) assegna(20,pacers,warriors) assegna(2,heat,warriors) assegna(9,nuggets,warriors) assegna(16,grizzlies,warriors) assegna(23,bucks,warriors) assegna(9,celtics,clippers) assegna(21,nets,clippers) assegna(30,seventysixers,clippers) assegna(15,bulls,clippers) assegna(8,cavaliers,clippers) assegna(28,mavericks,clippers) assegna(3,lakers,clippers) assegna(6,pistons,clippers) assegna(22,warriors,clippers) assegna(26,rockets,clippers) assegna(14,pacers,clippers) assegna(17,heat,clippers) assegna(11,nuggets,clippers) assegna(18,grizzlies,clippers) assegna(24,bucks,clippers) assegna(17,celtics,rockets) assegna(14,nets,rockets) assegna(9,seventysixers,rockets) assegna(28,bulls,rockets) assegna(29,cavaliers,rockets) assegna(25,mavericks,rockets) assegna(21,lakers,rockets) assegna(18,pistons,rockets) assegna(15,warriors,rockets) assegna(12,clippers,rockets) assegna(1,pacers,rockets) assegna(23,heat,rockets) assegna(6,nuggets,rockets) assegna(8,grizzlies,rockets) assegna(3,bucks,rockets) assegna(3,celtics,pacers) assegna(25,nets,pacers) assegna(12,seventysixers,pacers) assegna(21,bulls,pacers) assegna(18,cavaliers,pacers) assegna(15,mavericks,pacers) assegna(6,lakers,pacers) assegna(13,pistons,pacers) assegna(4,warriors,pacers) assegna(27,clippers,pacers) assegna(24,rockets,pacers) assegna(8,heat,pacers) assegna(19,nuggets,pacers) assegna(9,grizzlies,pacers) assegna(28,bucks,pacers) assegna(7,celtics,heat) assegna(18,nets,heat) assegna(13,seventysixers,heat) assegna(6,bulls,heat) assegna(25,cavaliers,heat) assegna(3,mavericks,heat) assegna(22,lakers,heat) assegna(16,pistons,heat) assegna(28,warriors,heat) assegna(10,clippers,heat) assegna(11,rockets,heat) assegna(26,pacers,heat) assegna(30,nuggets,heat) assegna(21,grizzlies,heat) assegna(1,bucks,heat) assegna(14,celtics,nuggets) assegna(28,nets,nuggets) assegna(2,seventysixers,nuggets) assegna(18,bulls,nuggets) assegna(21,cavaliers,nuggets) assegna(13,mavericks,nuggets) assegna(26,lakers,nuggets) assegna(20,pistons,nuggets) assegna(24,warriors,nuggets) assegna(23,clippers,nuggets) assegna(16,rockets,nuggets) assegna(10,pacers,nuggets) assegna(5,heat,nuggets) assegna(29,grizzlies,nuggets) assegna(8,bucks,nuggets) assegna(6,celtics,grizzlies) assegna(17,nets,grizzlies) assegna(4,seventysixers,grizzlies) assegna(10,bulls,grizzlies) assegna(7,cavaliers,grizzlies) assegna(27,mavericks,grizzlies) assegna(11,lakers,grizzlies) assegna(24,pistons,grizzlies) assegna(1,warriors,grizzlies) assegna(13,clippers,grizzlies) assegna(22,rockets,grizzlies) assegna(30,pacers,grizzlies) assegna(14,heat,grizzlies) assegna(3,nuggets,grizzlies) assegna(20,bucks,grizzlies) assegna(21,celtics,bucks) assegna(2,nets,bucks) assegna(22,seventysixers,bucks) assegna(12,bulls,bucks) assegna(17,cavaliers,bucks) assegna(9,mavericks,bucks) assegna(18,lakers,bucks) assegna(14,pistons,bucks) assegna(10,warriors,bucks) assegna(4,clippers,bucks) assegna(30,rockets,bucks) assegna(7,pacers,bucks) assegna(27,heat,bucks) assegna(25,nuggets,bucks) assegna(5,grizzlies,bucks)
SATISFIABLE

Models       : 1+
Calls        : 1
Time         : 38.354s (Solving: 37.91s 1st Model: 37.87s Unsat: 0.00s)
CPU Time     : 440.578s
Threads      : 12       (Winner: 2)
